58
Time limit set to 60 seconds
Running CP solver
/home/omastto1/General-Optimization-Solver/src/solvers/mmrcpsp.py:42(stream:108:6): Warning: Cumulative expression 'pulse': height is zero, expression is zero everywhere.
                                                                                               VarCumulAtom_149 = pulse(task_0_mode_0, 0)
/home/omastto1/General-Optimization-Solver/src/solvers/mmrcpsp.py:42(stream:108:1257): Warning: Cumulative expression 'pulse': height is zero, expression is zero everywhere.
                                                                                                  VarCumulAtom_198 = pulse(task_17_mode_0, 0)
/home/omastto1/General-Optimization-Solver/src/solvers/mmrcpsp.py:42(stream:109:6): Warning: Cumulative expression 'pulse': height is zero, expression is zero everywhere.
                                                                                               VarCumulAtom_202 = pulse(task_0_mode_0, 0)
/home/omastto1/General-Optimization-Solver/src/solvers/mmrcpsp.py:42(stream:109:1256): Warning: Cumulative expression 'pulse': height is zero, expression is zero everywhere.
                                                                                                  VarCumulAtom_251 = pulse(task_17_mode_0, 0)
 ! --------------------------------------------------- CP Optimizer 20.1.0.0 --
 ! Minimization problem - 69 variables, 51 constraints
 ! TimeLimit            = 60
 ! Workers              = 14
 ! LogVerbosity         = Terse
 ! Initial process time : 0.01s (0.01s extraction + 0.00s propagation)
 !  . Log search space  : 157.9 (before), 157.9 (after)
 !  . Memory usage      : 754.6 kB (before), 754.6 kB (after)
 ! Using parallel search with 14 workers.
 ! ----------------------------------------------------------------------------
 !          Best Branches  Non-fixed    W       Branch decision
                        0         69                 -
 + New bound is 34
 ! Using iterative diving.
 ! Using temporal relaxation.
 *            50       46  0.77s        1      (gap is 32.00%)
 *            45      113  0.77s        1      (gap is 24.44%)
 *            44      171  0.77s        1      (gap is 22.73%)
 *            42      408  0.77s        1      (gap is 19.05%)
 *            37     1344  0.77s        1      (gap is 8.11%)
 ! Using failure-directed search.
 *            36    13027  2.16s        4      (gap is 5.56%)
 *            35    13233  2.16s        4      (gap is 2.86%)
 *            34    43274  8.33s        6      (gap is 0.00%)
 ! ----------------------------------------------------------------------------
 ! Search completed, 8 solutions found.
 ! Best objective         : 34 (optimal - effective tol. is 0)
 ! Best bound             : 34
 ! ----------------------------------------------------------------------------
 ! Number of branches     : 865974
 ! Number of fails        : 239903
 ! Total memory usage     : 10.3 MB (10.2 MB CP Optimizer + 0.1 MB Concert)
 ! Time spent in solve    : 8.96s (8.96s engine + 0.01s extraction)
 ! Search speed (br. / s) : 96756.9
 ! ----------------------------------------------------------------------------
task_0: (start=0, end=0, size=0, length=0)
Task 0 is scheduled in mode 0 from 0 to 0
task_1: (start=0, end=3, size=3, length=3)
Task 1 is scheduled in mode 0 from 0 to 3
task_2: (start=1, end=5, size=4, length=4)
Task 2 is scheduled in mode 1 from 1 to 5
task_3: (start=0, end=1, size=1, length=1)
Task 3 is scheduled in mode 0 from 0 to 1
task_4: (start=3, end=4, size=1, length=1)
Task 4 is scheduled in mode 0 from 3 to 4
task_5: (start=11, end=19, size=8, length=8)
Task 5 is scheduled in mode 2 from 11 to 19
task_6: (start=5, end=11, size=6, length=6)
Task 6 is scheduled in mode 2 from 5 to 11
task_7: (start=6, end=12, size=6, length=6)
Task 7 is scheduled in mode 2 from 6 to 12
task_8: (start=12, end=17, size=5, length=5)
Task 8 is scheduled in mode 0 from 12 to 17
task_9: (start=17, end=27, size=10, length=10)
Task 9 is scheduled in mode 2 from 17 to 27
task_10: (start=4, end=6, size=2, length=2)
Task 10 is scheduled in mode 0 from 4 to 6
task_11: (start=17, end=19, size=2, length=2)
Task 11 is scheduled in mode 0 from 17 to 19
task_12: (start=19, end=29, size=10, length=10)
Task 12 is scheduled in mode 2 from 19 to 29
task_13: (start=19, end=27, size=8, length=8)
Task 13 is scheduled in mode 2 from 19 to 27
task_14: (start=27, end=34, size=7, length=7)
Task 14 is scheduled in mode 0 from 27 to 34
task_15: (start=27, end=33, size=6, length=6)
Task 15 is scheduled in mode 2 from 27 to 33
task_16: (start=29, end=33, size=4, length=4)
Task 16 is scheduled in mode 1 from 29 to 33
task_17: (start=34, end=34, size=0, length=0)
Task 17 is scheduled in mode 0 from 34 to 34
Optimal solution found
Objective value: 34
Solution is optimal.
